1000
[150,151,152,153,154,156,157,159,161,162,163,164,165,166,167,168,169,170,171,172,173,175,176,177,178,179,180,181,182,184,185,187,188,189,190,191,192,193,194,195,196,197,199,200]
[2,3,4,2,1,3,2,1,1,3,3,2,4,1,3,1,4,5,4,4,1,1,1,2,5,2,4,1,2,2,2,1,1,1,4,1,2,3,1,1,3,1,3,2]
